data/lp_files/q3/104_0.lp
\ Model foo
\ LP format - for model browsing. Use MPS format to capture full model detail.
Minimize
  z
Subject To
 allocateEach[1]: x[1,1] + x[2,1] + x[3,1] + x[4,1] + x[5,1] + x[6,1] = 1
 allocateEach[2]: x[1,2] + x[2,2] + x[3,2] + x[4,2] + x[5,2] + x[6,2] = 1
 allocateEach[3]: x[1,3] + x[2,3] + x[3,3] + x[4,3] + x[5,3] + x[6,3] = 1
 allocateEach[4]: x[1,4] + x[2,4] + x[3,4] + x[4,4] + x[5,4] + x[6,4] = 1
 allocateAllCash: cashProportion[1] + cashProportion[2] + cashProportion[3]
   + cashProportion[4] + cashProportion[5] + cashProportion[6] = 1
 findWorstP[1,2]: z + 0.0151666818333485 cashProportion[1]
   - 0.0151666818333485 cashProportion[2] + 0.1595838262504929 x[1,1]
   + 0.2902599569266236 x[1,2] + 0.297024297024297 x[1,3]
   + 0.2379652379652379 x[1,4] - 0.1595838262504929 x[2,1]
   - 0.2902599569266236 x[2,2] - 0.297024297024297 x[2,3]
   - 0.2379652379652379 x[2,4] >= 0
 findWorstP[1,3]: z + 0.0151666818333485 cashProportion[1]
   - 0.0151666818333485 cashProportion[3] + 0.1595838262504929 x[1,1]
   + 0.2902599569266236 x[1,2] + 0.297024297024297 x[1,3]
   + 0.2379652379652379 x[1,4] - 0.1595838262504929 x[3,1]
   - 0.2902599569266236 x[3,2] - 0.297024297024297 x[3,3]
   - 0.2379652379652379 x[3,4] >= 0
 findWorstP[1,4]: z + 0.0151666818333485 cashProportion[1]
   - 0.0151666818333485 cashProportion[4] + 0.1595838262504929 x[1,1]
   + 0.2902599569266236 x[1,2] + 0.297024297024297 x[1,3]
   + 0.2379652379652379 x[1,4] - 0.1595838262504929 x[4,1]
   - 0.2902599569266236 x[4,2] - 0.297024297024297 x[4,3]
   - 0.2379652379652379 x[4,4] >= 0
 findWorstP[1,5]: z + 0.0151666818333485 cashProportion[1]
   - 0.0151666818333485 cashProportion[5] + 0.1595838262504929 x[1,1]
   + 0.2902599569266236 x[1,2] + 0.297024297024297 x[1,3]
   + 0.2379652379652379 x[1,4] - 0.1595838262504929 x[5,1]
   - 0.2902599569266236 x[5,2] - 0.297024297024297 x[5,3]
   - 0.2379652379652379 x[5,4] >= 0
 findWorstP[1,6]: z + 0.0151666818333485 cashProportion[1]
   - 0.0151666818333485 cashProportion[6] + 0.1595838262504929 x[1,1]
   + 0.2902599569266236 x[1,2] + 0.297024297024297 x[1,3]
   + 0.2379652379652379 x[1,4] - 0.1595838262504929 x[6,1]
   - 0.2902599569266236 x[6,2] - 0.297024297024297 x[6,3]
   - 0.2379652379652379 x[6,4] >= 0
 findWorstP[2,1]: z - 0.0204081632653061 cashProportion[1]
   + 0.0204081632653061 cashProportion[2] - 0.3601224489795919 x[1,1]
   - 0.2724081632653061 x[1,2] - 0.2701224489795919 x[1,3]
   - 0.0769387755102041 x[1,4] + 0.3601224489795919 x[2,1]
   + 0.2724081632653061 x[2,2] + 0.2701224489795919 x[2,3]
   + 0.0769387755102041 x[2,4] >= 0
 findWorstP[2,3]: z + 0.0204081632653061 cashProportion[2]
   - 0.0204081632653061 cashProportion[3] + 0.3601224489795919 x[2,1]
   + 0.2724081632653061 x[2,2] + 0.2701224489795919 x[2,3]
   + 0.0769387755102041 x[2,4] - 0.3601224489795919 x[3,1]
   - 0.2724081632653061 x[3,2] - 0.2701224489795919 x[3,3]
   - 0.0769387755102041 x[3,4] >= 0
 findWorstP[2,4]: z + 0.0204081632653061 cashProportion[2]
   - 0.0204081632653061 cashProportion[4] + 0.3601224489795919 x[2,1]
   + 0.2724081632653061 x[2,2] + 0.2701224489795919 x[2,3]
   + 0.0769387755102041 x[2,4] - 0.3601224489795919 x[4,1]
   - 0.2724081632653061 x[4,2] - 0.2701224489795919 x[4,3]
   - 0.0769387755102041 x[4,4] >= 0
 findWorstP[2,5]: z + 0.0204081632653061 cashProportion[2]
   - 0.0204081632653061 cashProportion[5] + 0.3601224489795919 x[2,1]
   + 0.2724081632653061 x[2,2] + 0.2701224489795919 x[2,3]
   + 0.0769387755102041 x[2,4] - 0.3601224489795919 x[5,1]
   - 0.2724081632653061 x[5,2] - 0.2701224489795919 x[5,3]
   - 0.0769387755102041 x[5,4] >= 0
 findWorstP[2,6]: z + 0.0204081632653061 cashProportion[2]
   - 0.0204081632653061 cashProportion[6] + 0.3601224489795919 x[2,1]
   + 0.2724081632653061 x[2,2] + 0.2701224489795919 x[2,3]
   + 0.0769387755102041 x[2,4] - 0.3601224489795919 x[6,1]
   - 0.2724081632653061 x[6,2] - 0.2701224489795919 x[6,3]
   - 0.0769387755102041 x[6,4] >= 0
 findWorstP[3,1]: z - 0.018850852058513 cashProportion[1]
   + 0.018850852058513 cashProportion[3] - 0.2801613632936208 x[1,1]
   - 0.1957095460714824 x[1,2] - 0.1808173729452571 x[1,3]
   - 0.3244608656311265 x[1,4] + 0.2801613632936208 x[3,1]
   + 0.1957095460714824 x[3,2] + 0.1808173729452571 x[3,3]
   + 0.3244608656311265 x[3,4] >= 0
 findWorstP[3,2]: z - 0.018850852058513 cashProportion[2]
   + 0.018850852058513 cashProportion[3] - 0.2801613632936208 x[2,1]
   - 0.1957095460714824 x[2,2] - 0.1808173729452571 x[2,3]
   - 0.3244608656311265 x[2,4] + 0.2801613632936208 x[3,1]
   + 0.1957095460714824 x[3,2] + 0.1808173729452571 x[3,3]
   + 0.3244608656311265 x[3,4] >= 0
 findWorstP[3,4]: z + 0.018850852058513 cashProportion[3]
   - 0.018850852058513 cashProportion[4] + 0.2801613632936208 x[3,1]
   + 0.1957095460714824 x[3,2] + 0.1808173729452571 x[3,3]
   + 0.3244608656311265 x[3,4] - 0.2801613632936208 x[4,1]
   - 0.1957095460714824 x[4,2] - 0.1808173729452571 x[4,3]
   - 0.3244608656311265 x[4,4] >= 0
 findWorstP[3,5]: z + 0.018850852058513 cashProportion[3]
   - 0.018850852058513 cashProportion[5] + 0.2801613632936208 x[3,1]
   + 0.1957095460714824 x[3,2] + 0.1808173729452571 x[3,3]
   + 0.3244608656311265 x[3,4] - 0.2801613632936208 x[5,1]
   - 0.1957095460714824 x[5,2] - 0.1808173729452571 x[5,3]
   - 0.3244608656311265 x[5,4] >= 0
 findWorstP[3,6]: z + 0.018850852058513 cashProportion[3]
   - 0.018850852058513 cashProportion[6] + 0.2801613632936208 x[3,1]
   + 0.1957095460714824 x[3,2] + 0.1808173729452571 x[3,3]
   + 0.3244608656311265 x[3,4] - 0.2801613632936208 x[6,1]
   - 0.1957095460714824 x[6,2] - 0.1808173729452571 x[6,3]
   - 0.3244608656311265 x[6,4] >= 0
 findWorstP[4,1]: z - 0.0303656018462286 cashProportion[1]
   + 0.0303656018462286 cashProportion[4] - 0.00412972185108709 x[1,1]
   - 0.465201020284222 x[1,2] - 0.1696222519130329 x[1,3]
   - 0.3306814041054293 x[1,4] + 0.00412972185108709 x[4,1]
   + 0.465201020284222 x[4,2] + 0.1696222519130329 x[4,3]
   + 0.3306814041054293 x[4,4] >= 0
 findWorstP[4,2]: z - 0.0303656018462286 cashProportion[2]
   + 0.0303656018462286 cashProportion[4] - 0.00412972185108709 x[2,1]
   - 0.465201020284222 x[2,2] - 0.1696222519130329 x[2,3]
   - 0.3306814041054293 x[2,4] + 0.00412972185108709 x[4,1]
   + 0.465201020284222 x[4,2] + 0.1696222519130329 x[4,3]
   + 0.3306814041054293 x[4,4] >= 0
 findWorstP[4,3]: z - 0.0303656018462286 cashProportion[3]
   + 0.0303656018462286 cashProportion[4] - 0.00412972185108709 x[3,1]
   - 0.465201020284222 x[3,2] - 0.1696222519130329 x[3,3]
   - 0.3306814041054293 x[3,4] + 0.00412972185108709 x[4,1]
   + 0.465201020284222 x[4,2] + 0.1696222519130329 x[4,3]
   + 0.3306814041054293 x[4,4] >= 0
 findWorstP[4,5]: z + 0.0303656018462286 cashProportion[4]
   - 0.0303656018462286 cashProportion[5] + 0.00412972185108709 x[4,1]
   + 0.465201020284222 x[4,2] + 0.1696222519130329 x[4,3]
   + 0.3306814041054293 x[4,4] - 0.00412972185108709 x[5,1]
   - 0.465201020284222 x[5,2] - 0.1696222519130329 x[5,3]
   - 0.3306814041054293 x[5,4] >= 0
 findWorstP[4,6]: z + 0.0303656018462286 cashProportion[4]
   - 0.0303656018462286 cashProportion[6] + 0.00412972185108709 x[4,1]
   + 0.465201020284222 x[4,2] + 0.1696222519130329 x[4,3]
   + 0.3306814041054293 x[4,4] - 0.00412972185108709 x[6,1]
   - 0.465201020284222 x[6,2] - 0.1696222519130329 x[6,3]
   - 0.3306814041054293 x[6,4] >= 0
 findWorstP[5,1]: z - 0.0181818181818182 cashProportion[1]
   + 0.0181818181818182 cashProportion[5] - 0.0673090909090909 x[1,1]
   - 0.3183272727272728 x[1,2] - 0.235709090909091 x[1,3]
   - 0.3604727272727273 x[1,4] + 0.0673090909090909 x[5,1]
   + 0.3183272727272728 x[5,2] + 0.235709090909091 x[5,3]
   + 0.3604727272727273 x[5,4] >= 0
 findWorstP[5,2]: z - 0.0181818181818182 cashProportion[2]
   + 0.0181818181818182 cashProportion[5] - 0.0673090909090909 x[2,1]
   - 0.3183272727272728 x[2,2] - 0.235709090909091 x[2,3]
   - 0.3604727272727273 x[2,4] + 0.0673090909090909 x[5,1]
   + 0.3183272727272728 x[5,2] + 0.235709090909091 x[5,3]
   + 0.3604727272727273 x[5,4] >= 0
 findWorstP[5,3]: z - 0.0181818181818182 cashProportion[3]
   + 0.0181818181818182 cashProportion[5] - 0.0673090909090909 x[3,1]
   - 0.3183272727272728 x[3,2] - 0.235709090909091 x[3,3]
   - 0.3604727272727273 x[3,4] + 0.0673090909090909 x[5,1]
   + 0.3183272727272728 x[5,2] + 0.235709090909091 x[5,3]
   + 0.3604727272727273 x[5,4] >= 0
 findWorstP[5,4]: z - 0.0181818181818182 cashProportion[4]
   + 0.0181818181818182 cashProportion[5] - 0.0673090909090909 x[4,1]
   - 0.3183272727272728 x[4,2] - 0.235709090909091 x[4,3]
   - 0.3604727272727273 x[4,4] + 0.0673090909090909 x[5,1]
   + 0.3183272727272728 x[5,2] + 0.235709090909091 x[5,3]
   + 0.3604727272727273 x[5,4] >= 0
 findWorstP[5,6]: z + 0.0181818181818182 cashProportion[5]
   - 0.0181818181818182 cashProportion[6] + 0.0673090909090909 x[5,1]
   + 0.3183272727272728 x[5,2] + 0.235709090909091 x[5,3]
   + 0.3604727272727273 x[5,4] - 0.0673090909090909 x[6,1]
   - 0.3183272727272728 x[6,2] - 0.235709090909091 x[6,3]
   - 0.3604727272727273 x[6,4] >= 0
 findWorstP[6,1]: z - 0.0178839688103584 cashProportion[1]
   + 0.0178839688103584 cashProportion[6] - 0.285678517776665 x[1,1]
   - 0.3143286358108592 x[1,2] - 0.2651119536447529 x[1,3]
   - 0.1169969239573646 x[1,4] + 0.285678517776665 x[6,1]
   + 0.3143286358108592 x[6,2] + 0.2651119536447529 x[6,3]
   + 0.1169969239573646 x[6,4] >= 0
 findWorstP[6,2]: z - 0.0178839688103584 cashProportion[2]
   + 0.0178839688103584 cashProportion[6] - 0.285678517776665 x[2,1]
   - 0.3143286358108592 x[2,2] - 0.2651119536447529 x[2,3]
   - 0.1169969239573646 x[2,4] + 0.285678517776665 x[6,1]
   + 0.3143286358108592 x[6,2] + 0.2651119536447529 x[6,3]
   + 0.1169969239573646 x[6,4] >= 0
 findWorstP[6,3]: z - 0.0178839688103584 cashProportion[3]
   + 0.0178839688103584 cashProportion[6] - 0.285678517776665 x[3,1]
   - 0.3143286358108592 x[3,2] - 0.2651119536447529 x[3,3]
   - 0.1169969239573646 x[3,4] + 0.285678517776665 x[6,1]
   + 0.3143286358108592 x[6,2] + 0.2651119536447529 x[6,3]
   + 0.1169969239573646 x[6,4] >= 0
 findWorstP[6,4]: z - 0.0178839688103584 cashProportion[4]
   + 0.0178839688103584 cashProportion[6] - 0.285678517776665 x[4,1]
   - 0.3143286358108592 x[4,2] - 0.2651119536447529 x[4,3]
   - 0.1169969239573646 x[4,4] + 0.285678517776665 x[6,1]
   + 0.3143286358108592 x[6,2] + 0.2651119536447529 x[6,3]
   + 0.1169969239573646 x[6,4] >= 0
 findWorstP[6,5]: z - 0.0178839688103584 cashProportion[5]
   + 0.0178839688103584 cashProportion[6] - 0.285678517776665 x[5,1]
   - 0.3143286358108592 x[5,2] - 0.2651119536447529 x[5,3]
   - 0.1169969239573646 x[5,4] + 0.285678517776665 x[6,1]
   + 0.3143286358108592 x[6,2] + 0.2651119536447529 x[6,3]
   + 0.1169969239573646 x[6,4] >= 0
Bounds
 z <= 1
 -infinity <= cashProportion[1] <= 1
 -infinity <= cashProportion[2] <= 1
 -infinity <= cashProportion[3] <= 1
 -infinity <= cashProportion[4] <= 1
 -infinity <= cashProportion[5] <= 1
 -infinity <= cashProportion[6] <= 1
Binaries
 x[1,1] x[1,2] x[1,3] x[1,4] x[2,1] x[2,2] x[2,3] x[2,4] x[3,1] x[3,2]
 x[3,3] x[3,4] x[4,1] x[4,2] x[4,3] x[4,4] x[5,1] x[5,2] x[5,3] x[5,4]
 x[6,1] x[6,2] x[6,3] x[6,4]
End
