data/mps_files/q3/104_0.mps
NAME foo
ROWS
 N  OBJ
 E  allocateEach[1]
 E  allocateEach[2]
 E  allocateEach[3]
 E  allocateEach[4]
 E  allocateAllCash
 G  findWorstP[1,2]
 G  findWorstP[1,3]
 G  findWorstP[1,4]
 G  findWorstP[1,5]
 G  findWorstP[1,6]
 G  findWorstP[2,1]
 G  findWorstP[2,3]
 G  findWorstP[2,4]
 G  findWorstP[2,5]
 G  findWorstP[2,6]
 G  findWorstP[3,1]
 G  findWorstP[3,2]
 G  findWorstP[3,4]
 G  findWorstP[3,5]
 G  findWorstP[3,6]
 G  findWorstP[4,1]
 G  findWorstP[4,2]
 G  findWorstP[4,3]
 G  findWorstP[4,5]
 G  findWorstP[4,6]
 G  findWorstP[5,1]
 G  findWorstP[5,2]
 G  findWorstP[5,3]
 G  findWorstP[5,4]
 G  findWorstP[5,6]
 G  findWorstP[6,1]
 G  findWorstP[6,2]
 G  findWorstP[6,3]
 G  findWorstP[6,4]
 G  findWorstP[6,5]
COLUMNS
    z         OBJ       1
    z         findWorstP[1,2]  1
    z         findWorstP[1,3]  1
    z         findWorstP[1,4]  1
    z         findWorstP[1,5]  1
    z         findWorstP[1,6]  1
    z         findWorstP[2,1]  1
    z         findWorstP[2,3]  1
    z         findWorstP[2,4]  1
    z         findWorstP[2,5]  1
    z         findWorstP[2,6]  1
    z         findWorstP[3,1]  1
    z         findWorstP[3,2]  1
    z         findWorstP[3,4]  1
    z         findWorstP[3,5]  1
    z         findWorstP[3,6]  1
    z         findWorstP[4,1]  1
    z         findWorstP[4,2]  1
    z         findWorstP[4,3]  1
    z         findWorstP[4,5]  1
    z         findWorstP[4,6]  1
    z         findWorstP[5,1]  1
    z         findWorstP[5,2]  1
    z         findWorstP[5,3]  1
    z         findWorstP[5,4]  1
    z         findWorstP[5,6]  1
    z         findWorstP[6,1]  1
    z         findWorstP[6,2]  1
    z         findWorstP[6,3]  1
    z         findWorstP[6,4]  1
    z         findWorstP[6,5]  1
    cashProportion[1]  allocateAllCash  1
    cashProportion[1]  findWorstP[1,2]  1.5166681833348501e-02
    cashProportion[1]  findWorstP[1,3]  1.5166681833348501e-02
    cashProportion[1]  findWorstP[1,4]  1.5166681833348501e-02
    cashProportion[1]  findWorstP[1,5]  1.5166681833348501e-02
    cashProportion[1]  findWorstP[1,6]  1.5166681833348501e-02
    cashProportion[1]  findWorstP[2,1]  -2.0408163265306128e-02
    cashProportion[1]  findWorstP[3,1]  -1.8850852058513043e-02
    cashProportion[1]  findWorstP[4,1]  -3.0365601846228593e-02
    cashProportion[1]  findWorstP[5,1]  -1.8181818181818184e-02
    cashProportion[1]  findWorstP[6,1]  -0.0178839688103584
    cashProportion[2]  allocateAllCash  1
    cashProportion[2]  findWorstP[1,2]  -1.5166681833348501e-02
    cashProportion[2]  findWorstP[2,1]  2.0408163265306128e-02
    cashProportion[2]  findWorstP[2,3]  2.0408163265306128e-02
    cashProportion[2]  findWorstP[2,4]  2.0408163265306128e-02
    cashProportion[2]  findWorstP[2,5]  2.0408163265306128e-02
    cashProportion[2]  findWorstP[2,6]  2.0408163265306128e-02
    cashProportion[2]  findWorstP[3,2]  -1.8850852058513043e-02
    cashProportion[2]  findWorstP[4,2]  -3.0365601846228593e-02
    cashProportion[2]  findWorstP[5,2]  -1.8181818181818184e-02
    cashProportion[2]  findWorstP[6,2]  -0.0178839688103584
    cashProportion[3]  allocateAllCash  1
    cashProportion[3]  findWorstP[1,3]  -1.5166681833348501e-02
    cashProportion[3]  findWorstP[2,3]  -2.0408163265306128e-02
    cashProportion[3]  findWorstP[3,1]  1.8850852058513043e-02
    cashProportion[3]  findWorstP[3,2]  1.8850852058513043e-02
    cashProportion[3]  findWorstP[3,4]  1.8850852058513043e-02
    cashProportion[3]  findWorstP[3,5]  1.8850852058513043e-02
    cashProportion[3]  findWorstP[3,6]  1.8850852058513043e-02
    cashProportion[3]  findWorstP[4,3]  -3.0365601846228593e-02
    cashProportion[3]  findWorstP[5,3]  -1.8181818181818184e-02
    cashProportion[3]  findWorstP[6,3]  -0.0178839688103584
    cashProportion[4]  allocateAllCash  1
    cashProportion[4]  findWorstP[1,4]  -1.5166681833348501e-02
    cashProportion[4]  findWorstP[2,4]  -2.0408163265306128e-02
    cashProportion[4]  findWorstP[3,4]  -1.8850852058513043e-02
    cashProportion[4]  findWorstP[4,1]  3.0365601846228593e-02
    cashProportion[4]  findWorstP[4,2]  3.0365601846228593e-02
    cashProportion[4]  findWorstP[4,3]  3.0365601846228593e-02
    cashProportion[4]  findWorstP[4,5]  3.0365601846228593e-02
    cashProportion[4]  findWorstP[4,6]  3.0365601846228593e-02
    cashProportion[4]  findWorstP[5,4]  -1.8181818181818184e-02
    cashProportion[4]  findWorstP[6,4]  -0.0178839688103584
    cashProportion[5]  allocateAllCash  1
    cashProportion[5]  findWorstP[1,5]  -1.5166681833348501e-02
    cashProportion[5]  findWorstP[2,5]  -2.0408163265306128e-02
    cashProportion[5]  findWorstP[3,5]  -1.8850852058513043e-02
    cashProportion[5]  findWorstP[4,5]  -3.0365601846228593e-02
    cashProportion[5]  findWorstP[5,1]  1.8181818181818184e-02
    cashProportion[5]  findWorstP[5,2]  1.8181818181818184e-02
    cashProportion[5]  findWorstP[5,3]  1.8181818181818184e-02
    cashProportion[5]  findWorstP[5,4]  1.8181818181818184e-02
    cashProportion[5]  findWorstP[5,6]  1.8181818181818184e-02
    cashProportion[5]  findWorstP[6,5]  -0.0178839688103584
    cashProportion[6]  allocateAllCash  1
    cashProportion[6]  findWorstP[1,6]  -1.5166681833348501e-02
    cashProportion[6]  findWorstP[2,6]  -2.0408163265306128e-02
    cashProportion[6]  findWorstP[3,6]  -1.8850852058513043e-02
    cashProportion[6]  findWorstP[4,6]  -3.0365601846228593e-02
    cashProportion[6]  findWorstP[5,6]  -1.8181818181818184e-02
    cashProportion[6]  findWorstP[6,1]  0.0178839688103584
    cashProportion[6]  findWorstP[6,2]  0.0178839688103584
    cashProportion[6]  findWorstP[6,3]  0.0178839688103584
    cashProportion[6]  findWorstP[6,4]  0.0178839688103584
    cashProportion[6]  findWorstP[6,5]  0.0178839688103584
    MARKER    'MARKER'                 'INTORG'
    x[1,1]    allocateEach[1]  1
    x[1,1]    findWorstP[1,2]  1.5958382625049292e-01
    x[1,1]    findWorstP[1,3]  1.5958382625049292e-01
    x[1,1]    findWorstP[1,4]  1.5958382625049292e-01
    x[1,1]    findWorstP[1,5]  1.5958382625049292e-01
    x[1,1]    findWorstP[1,6]  1.5958382625049292e-01
    x[1,1]    findWorstP[2,1]  -3.6012244897959189e-01
    x[1,1]    findWorstP[3,1]  -2.8016136329362085e-01
    x[1,1]    findWorstP[4,1]  -4.1297218510870882e-03
    x[1,1]    findWorstP[5,1]  -6.7309090909090916e-02
    x[1,1]    findWorstP[6,1]  -2.8567851777666503e-01
    x[1,2]    allocateEach[2]  1
    x[1,2]    findWorstP[1,2]  2.9025995692662360e-01
    x[1,2]    findWorstP[1,3]  2.9025995692662360e-01
    x[1,2]    findWorstP[1,4]  2.9025995692662360e-01
    x[1,2]    findWorstP[1,5]  2.9025995692662360e-01
    x[1,2]    findWorstP[1,6]  2.9025995692662360e-01
    x[1,2]    findWorstP[2,1]  -2.7240816326530615e-01
    x[1,2]    findWorstP[3,1]  -1.9570954607148242e-01
    x[1,2]    findWorstP[4,1]  -0.465201020284222
    x[1,2]    findWorstP[5,1]  -3.1832727272727279e-01
    x[1,2]    findWorstP[6,1]  -3.1432863581085918e-01
    x[1,3]    allocateEach[3]  1
    x[1,3]    findWorstP[1,2]  0.297024297024297
    x[1,3]    findWorstP[1,3]  0.297024297024297
    x[1,3]    findWorstP[1,4]  0.297024297024297
    x[1,3]    findWorstP[1,5]  0.297024297024297
    x[1,3]    findWorstP[1,6]  0.297024297024297
    x[1,3]    findWorstP[2,1]  -2.7012244897959192e-01
    x[1,3]    findWorstP[3,1]  -1.8081737294525713e-01
    x[1,3]    findWorstP[4,1]  -1.6962225191303290e-01
    x[1,3]    findWorstP[5,1]  -2.3570909090909095e-01
    x[1,3]    findWorstP[6,1]  -2.6511195364475287e-01
    x[1,4]    allocateEach[4]  1
    x[1,4]    findWorstP[1,2]  2.3796523796523794e-01
    x[1,4]    findWorstP[1,3]  2.3796523796523794e-01
    x[1,4]    findWorstP[1,4]  2.3796523796523794e-01
    x[1,4]    findWorstP[1,5]  2.3796523796523794e-01
    x[1,4]    findWorstP[1,6]  2.3796523796523794e-01
    x[1,4]    findWorstP[2,1]  -7.6938775510204088e-02
    x[1,4]    findWorstP[3,1]  -3.2446086563112653e-01
    x[1,4]    findWorstP[4,1]  -3.3068140410542934e-01
    x[1,4]    findWorstP[5,1]  -3.6047272727272733e-01
    x[1,4]    findWorstP[6,1]  -1.1699692395736463e-01
    x[2,1]    allocateEach[1]  1
    x[2,1]    findWorstP[1,2]  -1.5958382625049292e-01
    x[2,1]    findWorstP[2,1]  3.6012244897959189e-01
    x[2,1]    findWorstP[2,3]  3.6012244897959189e-01
    x[2,1]    findWorstP[2,4]  3.6012244897959189e-01
    x[2,1]    findWorstP[2,5]  3.6012244897959189e-01
    x[2,1]    findWorstP[2,6]  3.6012244897959189e-01
    x[2,1]    findWorstP[3,2]  -2.8016136329362085e-01
    x[2,1]    findWorstP[4,2]  -4.1297218510870882e-03
    x[2,1]    findWorstP[5,2]  -6.7309090909090916e-02
    x[2,1]    findWorstP[6,2]  -2.8567851777666503e-01
    x[2,2]    allocateEach[2]  1
    x[2,2]    findWorstP[1,2]  -2.9025995692662360e-01
    x[2,2]    findWorstP[2,1]  2.7240816326530615e-01
    x[2,2]    findWorstP[2,3]  2.7240816326530615e-01
    x[2,2]    findWorstP[2,4]  2.7240816326530615e-01
    x[2,2]    findWorstP[2,5]  2.7240816326530615e-01
    x[2,2]    findWorstP[2,6]  2.7240816326530615e-01
    x[2,2]    findWorstP[3,2]  -1.9570954607148242e-01
    x[2,2]    findWorstP[4,2]  -0.465201020284222
    x[2,2]    findWorstP[5,2]  -3.1832727272727279e-01
    x[2,2]    findWorstP[6,2]  -3.1432863581085918e-01
    x[2,3]    allocateEach[3]  1
    x[2,3]    findWorstP[1,2]  -0.297024297024297
    x[2,3]    findWorstP[2,1]  2.7012244897959192e-01
    x[2,3]    findWorstP[2,3]  2.7012244897959192e-01
    x[2,3]    findWorstP[2,4]  2.7012244897959192e-01
    x[2,3]    findWorstP[2,5]  2.7012244897959192e-01
    x[2,3]    findWorstP[2,6]  2.7012244897959192e-01
    x[2,3]    findWorstP[3,2]  -1.8081737294525713e-01
    x[2,3]    findWorstP[4,2]  -1.6962225191303290e-01
    x[2,3]    findWorstP[5,2]  -2.3570909090909095e-01
    x[2,3]    findWorstP[6,2]  -2.6511195364475287e-01
    x[2,4]    allocateEach[4]  1
    x[2,4]    findWorstP[1,2]  -2.3796523796523794e-01
    x[2,4]    findWorstP[2,1]  7.6938775510204088e-02
    x[2,4]    findWorstP[2,3]  7.6938775510204088e-02
    x[2,4]    findWorstP[2,4]  7.6938775510204088e-02
    x[2,4]    findWorstP[2,5]  7.6938775510204088e-02
    x[2,4]    findWorstP[2,6]  7.6938775510204088e-02
    x[2,4]    findWorstP[3,2]  -3.2446086563112653e-01
    x[2,4]    findWorstP[4,2]  -3.3068140410542934e-01
    x[2,4]    findWorstP[5,2]  -3.6047272727272733e-01
    x[2,4]    findWorstP[6,2]  -1.1699692395736463e-01
    x[3,1]    allocateEach[1]  1
    x[3,1]    findWorstP[1,3]  -1.5958382625049292e-01
    x[3,1]    findWorstP[2,3]  -3.6012244897959189e-01
    x[3,1]    findWorstP[3,1]  2.8016136329362085e-01
    x[3,1]    findWorstP[3,2]  2.8016136329362085e-01
    x[3,1]    findWorstP[3,4]  2.8016136329362085e-01
    x[3,1]    findWorstP[3,5]  2.8016136329362085e-01
    x[3,1]    findWorstP[3,6]  2.8016136329362085e-01
    x[3,1]    findWorstP[4,3]  -4.1297218510870882e-03
    x[3,1]    findWorstP[5,3]  -6.7309090909090916e-02
    x[3,1]    findWorstP[6,3]  -2.8567851777666503e-01
    x[3,2]    allocateEach[2]  1
    x[3,2]    findWorstP[1,3]  -2.9025995692662360e-01
    x[3,2]    findWorstP[2,3]  -2.7240816326530615e-01
    x[3,2]    findWorstP[3,1]  1.9570954607148242e-01
    x[3,2]    findWorstP[3,2]  1.9570954607148242e-01
    x[3,2]    findWorstP[3,4]  1.9570954607148242e-01
    x[3,2]    findWorstP[3,5]  1.9570954607148242e-01
    x[3,2]    findWorstP[3,6]  1.9570954607148242e-01
    x[3,2]    findWorstP[4,3]  -0.465201020284222
    x[3,2]    findWorstP[5,3]  -3.1832727272727279e-01
    x[3,2]    findWorstP[6,3]  -3.1432863581085918e-01
    x[3,3]    allocateEach[3]  1
    x[3,3]    findWorstP[1,3]  -0.297024297024297
    x[3,3]    findWorstP[2,3]  -2.7012244897959192e-01
    x[3,3]    findWorstP[3,1]  1.8081737294525713e-01
    x[3,3]    findWorstP[3,2]  1.8081737294525713e-01
    x[3,3]    findWorstP[3,4]  1.8081737294525713e-01
    x[3,3]    findWorstP[3,5]  1.8081737294525713e-01
    x[3,3]    findWorstP[3,6]  1.8081737294525713e-01
    x[3,3]    findWorstP[4,3]  -1.6962225191303290e-01
    x[3,3]    findWorstP[5,3]  -2.3570909090909095e-01
    x[3,3]    findWorstP[6,3]  -2.6511195364475287e-01
    x[3,4]    allocateEach[4]  1
    x[3,4]    findWorstP[1,3]  -2.3796523796523794e-01
    x[3,4]    findWorstP[2,3]  -7.6938775510204088e-02
    x[3,4]    findWorstP[3,1]  3.2446086563112653e-01
    x[3,4]    findWorstP[3,2]  3.2446086563112653e-01
    x[3,4]    findWorstP[3,4]  3.2446086563112653e-01
    x[3,4]    findWorstP[3,5]  3.2446086563112653e-01
    x[3,4]    findWorstP[3,6]  3.2446086563112653e-01
    x[3,4]    findWorstP[4,3]  -3.3068140410542934e-01
    x[3,4]    findWorstP[5,3]  -3.6047272727272733e-01
    x[3,4]    findWorstP[6,3]  -1.1699692395736463e-01
    x[4,1]    allocateEach[1]  1
    x[4,1]    findWorstP[1,4]  -1.5958382625049292e-01
    x[4,1]    findWorstP[2,4]  -3.6012244897959189e-01
    x[4,1]    findWorstP[3,4]  -2.8016136329362085e-01
    x[4,1]    findWorstP[4,1]  4.1297218510870882e-03
    x[4,1]    findWorstP[4,2]  4.1297218510870882e-03
    x[4,1]    findWorstP[4,3]  4.1297218510870882e-03
    x[4,1]    findWorstP[4,5]  4.1297218510870882e-03
    x[4,1]    findWorstP[4,6]  4.1297218510870882e-03
    x[4,1]    findWorstP[5,4]  -6.7309090909090916e-02
    x[4,1]    findWorstP[6,4]  -2.8567851777666503e-01
    x[4,2]    allocateEach[2]  1
    x[4,2]    findWorstP[1,4]  -2.9025995692662360e-01
    x[4,2]    findWorstP[2,4]  -2.7240816326530615e-01
    x[4,2]    findWorstP[3,4]  -1.9570954607148242e-01
    x[4,2]    findWorstP[4,1]  0.465201020284222
    x[4,2]    findWorstP[4,2]  0.465201020284222
    x[4,2]    findWorstP[4,3]  0.465201020284222
    x[4,2]    findWorstP[4,5]  0.465201020284222
    x[4,2]    findWorstP[4,6]  0.465201020284222
    x[4,2]    findWorstP[5,4]  -3.1832727272727279e-01
    x[4,2]    findWorstP[6,4]  -3.1432863581085918e-01
    x[4,3]    allocateEach[3]  1
    x[4,3]    findWorstP[1,4]  -0.297024297024297
    x[4,3]    findWorstP[2,4]  -2.7012244897959192e-01
    x[4,3]    findWorstP[3,4]  -1.8081737294525713e-01
    x[4,3]    findWorstP[4,1]  1.6962225191303290e-01
    x[4,3]    findWorstP[4,2]  1.6962225191303290e-01
    x[4,3]    findWorstP[4,3]  1.6962225191303290e-01
    x[4,3]    findWorstP[4,5]  1.6962225191303290e-01
    x[4,3]    findWorstP[4,6]  1.6962225191303290e-01
    x[4,3]    findWorstP[5,4]  -2.3570909090909095e-01
    x[4,3]    findWorstP[6,4]  -2.6511195364475287e-01
    x[4,4]    allocateEach[4]  1
    x[4,4]    findWorstP[1,4]  -2.3796523796523794e-01
    x[4,4]    findWorstP[2,4]  -7.6938775510204088e-02
    x[4,4]    findWorstP[3,4]  -3.2446086563112653e-01
    x[4,4]    findWorstP[4,1]  3.3068140410542934e-01
    x[4,4]    findWorstP[4,2]  3.3068140410542934e-01
    x[4,4]    findWorstP[4,3]  3.3068140410542934e-01
    x[4,4]    findWorstP[4,5]  3.3068140410542934e-01
    x[4,4]    findWorstP[4,6]  3.3068140410542934e-01
    x[4,4]    findWorstP[5,4]  -3.6047272727272733e-01
    x[4,4]    findWorstP[6,4]  -1.1699692395736463e-01
    x[5,1]    allocateEach[1]  1
    x[5,1]    findWorstP[1,5]  -1.5958382625049292e-01
    x[5,1]    findWorstP[2,5]  -3.6012244897959189e-01
    x[5,1]    findWorstP[3,5]  -2.8016136329362085e-01
    x[5,1]    findWorstP[4,5]  -4.1297218510870882e-03
    x[5,1]    findWorstP[5,1]  6.7309090909090916e-02
    x[5,1]    findWorstP[5,2]  6.7309090909090916e-02
    x[5,1]    findWorstP[5,3]  6.7309090909090916e-02
    x[5,1]    findWorstP[5,4]  6.7309090909090916e-02
    x[5,1]    findWorstP[5,6]  6.7309090909090916e-02
    x[5,1]    findWorstP[6,5]  -2.8567851777666503e-01
    x[5,2]    allocateEach[2]  1
    x[5,2]    findWorstP[1,5]  -2.9025995692662360e-01
    x[5,2]    findWorstP[2,5]  -2.7240816326530615e-01
    x[5,2]    findWorstP[3,5]  -1.9570954607148242e-01
    x[5,2]    findWorstP[4,5]  -0.465201020284222
    x[5,2]    findWorstP[5,1]  3.1832727272727279e-01
    x[5,2]    findWorstP[5,2]  3.1832727272727279e-01
    x[5,2]    findWorstP[5,3]  3.1832727272727279e-01
    x[5,2]    findWorstP[5,4]  3.1832727272727279e-01
    x[5,2]    findWorstP[5,6]  3.1832727272727279e-01
    x[5,2]    findWorstP[6,5]  -3.1432863581085918e-01
    x[5,3]    allocateEach[3]  1
    x[5,3]    findWorstP[1,5]  -0.297024297024297
    x[5,3]    findWorstP[2,5]  -2.7012244897959192e-01
    x[5,3]    findWorstP[3,5]  -1.8081737294525713e-01
    x[5,3]    findWorstP[4,5]  -1.6962225191303290e-01
    x[5,3]    findWorstP[5,1]  2.3570909090909095e-01
    x[5,3]    findWorstP[5,2]  2.3570909090909095e-01
    x[5,3]    findWorstP[5,3]  2.3570909090909095e-01
    x[5,3]    findWorstP[5,4]  2.3570909090909095e-01
    x[5,3]    findWorstP[5,6]  2.3570909090909095e-01
    x[5,3]    findWorstP[6,5]  -2.6511195364475287e-01
    x[5,4]    allocateEach[4]  1
    x[5,4]    findWorstP[1,5]  -2.3796523796523794e-01
    x[5,4]    findWorstP[2,5]  -7.6938775510204088e-02
    x[5,4]    findWorstP[3,5]  -3.2446086563112653e-01
    x[5,4]    findWorstP[4,5]  -3.3068140410542934e-01
    x[5,4]    findWorstP[5,1]  3.6047272727272733e-01
    x[5,4]    findWorstP[5,2]  3.6047272727272733e-01
    x[5,4]    findWorstP[5,3]  3.6047272727272733e-01
    x[5,4]    findWorstP[5,4]  3.6047272727272733e-01
    x[5,4]    findWorstP[5,6]  3.6047272727272733e-01
    x[5,4]    findWorstP[6,5]  -1.1699692395736463e-01
    x[6,1]    allocateEach[1]  1
    x[6,1]    findWorstP[1,6]  -1.5958382625049292e-01
    x[6,1]    findWorstP[2,6]  -3.6012244897959189e-01
    x[6,1]    findWorstP[3,6]  -2.8016136329362085e-01
    x[6,1]    findWorstP[4,6]  -4.1297218510870882e-03
    x[6,1]    findWorstP[5,6]  -6.7309090909090916e-02
    x[6,1]    findWorstP[6,1]  2.8567851777666503e-01
    x[6,1]    findWorstP[6,2]  2.8567851777666503e-01
    x[6,1]    findWorstP[6,3]  2.8567851777666503e-01
    x[6,1]    findWorstP[6,4]  2.8567851777666503e-01
    x[6,1]    findWorstP[6,5]  2.8567851777666503e-01
    x[6,2]    allocateEach[2]  1
    x[6,2]    findWorstP[1,6]  -2.9025995692662360e-01
    x[6,2]    findWorstP[2,6]  -2.7240816326530615e-01
    x[6,2]    findWorstP[3,6]  -1.9570954607148242e-01
    x[6,2]    findWorstP[4,6]  -0.465201020284222
    x[6,2]    findWorstP[5,6]  -3.1832727272727279e-01
    x[6,2]    findWorstP[6,1]  3.1432863581085918e-01
    x[6,2]    findWorstP[6,2]  3.1432863581085918e-01
    x[6,2]    findWorstP[6,3]  3.1432863581085918e-01
    x[6,2]    findWorstP[6,4]  3.1432863581085918e-01
    x[6,2]    findWorstP[6,5]  3.1432863581085918e-01
    x[6,3]    allocateEach[3]  1
    x[6,3]    findWorstP[1,6]  -0.297024297024297
    x[6,3]    findWorstP[2,6]  -2.7012244897959192e-01
    x[6,3]    findWorstP[3,6]  -1.8081737294525713e-01
    x[6,3]    findWorstP[4,6]  -1.6962225191303290e-01
    x[6,3]    findWorstP[5,6]  -2.3570909090909095e-01
    x[6,3]    findWorstP[6,1]  2.6511195364475287e-01
    x[6,3]    findWorstP[6,2]  2.6511195364475287e-01
    x[6,3]    findWorstP[6,3]  2.6511195364475287e-01
    x[6,3]    findWorstP[6,4]  2.6511195364475287e-01
    x[6,3]    findWorstP[6,5]  2.6511195364475287e-01
    x[6,4]    allocateEach[4]  1
    x[6,4]    findWorstP[1,6]  -2.3796523796523794e-01
    x[6,4]    findWorstP[2,6]  -7.6938775510204088e-02
    x[6,4]    findWorstP[3,6]  -3.2446086563112653e-01
    x[6,4]    findWorstP[4,6]  -3.3068140410542934e-01
    x[6,4]    findWorstP[5,6]  -3.6047272727272733e-01
    x[6,4]    findWorstP[6,1]  1.1699692395736463e-01
    x[6,4]    findWorstP[6,2]  1.1699692395736463e-01
    x[6,4]    findWorstP[6,3]  1.1699692395736463e-01
    x[6,4]    findWorstP[6,4]  1.1699692395736463e-01
    x[6,4]    findWorstP[6,5]  1.1699692395736463e-01
    MARKER    'MARKER'                 'INTEND'
RHS
    RHS1      allocateEach[1]  1
    RHS1      allocateEach[2]  1
    RHS1      allocateEach[3]  1
    RHS1      allocateEach[4]  1
    RHS1      allocateAllCash  1
BOUNDS
 UP BND1      z         1
 MI BND1      cashProportion[1]
 UP BND1      cashProportion[1]  1
 MI BND1      cashProportion[2]
 UP BND1      cashProportion[2]  1
 MI BND1      cashProportion[3]
 UP BND1      cashProportion[3]  1
 MI BND1      cashProportion[4]
 UP BND1      cashProportion[4]  1
 MI BND1      cashProportion[5]
 UP BND1      cashProportion[5]  1
 MI BND1      cashProportion[6]
 UP BND1      cashProportion[6]  1
 BV BND1      x[1,1]  
 BV BND1      x[1,2]  
 BV BND1      x[1,3]  
 BV BND1      x[1,4]  
 BV BND1      x[2,1]  
 BV BND1      x[2,2]  
 BV BND1      x[2,3]  
 BV BND1      x[2,4]  
 BV BND1      x[3,1]  
 BV BND1      x[3,2]  
 BV BND1      x[3,3]  
 BV BND1      x[3,4]  
 BV BND1      x[4,1]  
 BV BND1      x[4,2]  
 BV BND1      x[4,3]  
 BV BND1      x[4,4]  
 BV BND1      x[5,1]  
 BV BND1      x[5,2]  
 BV BND1      x[5,3]  
 BV BND1      x[5,4]  
 BV BND1      x[6,1]  
 BV BND1      x[6,2]  
 BV BND1      x[6,3]  
 BV BND1      x[6,4]  
ENDATA
